50, 582
32, 27
49, 44
29, 24
8, 3
10, 5
22, 17
24, 19
38, 33
47, 42
7, 2
33, 28
49, 44
12, 7
17, 12
15, 10
10, 5
24, 19
17, 12
18, 13
36, 31
34, 29
13, 8
28, 23
54, 49
48, 43
45, 40
7, 2
18, 13
25, 20
31, 26
34, 29
52, 47
52, 47
47, 42
21, 16
36, 31
12, 7
21, 16
7, 2
39, 34
14, 9
33, 28
47, 42
32, 27
43, 38
9, 4
7, 2
10, 5
46, 41
52, 47
